(set-logic QF_NRA)
(set-info :source |Benchmarks generated from hycomp (https://es-static.fbk.eu/tools/hycomp/). BMC instances of non-linear hybrid automata taken from: Alessandro Cimatti, Sergio Mover, Stefano Tonetta, A quantifier-free SMT encoding of non-linear hybrid automata, FMCAD 2012 and Alessandro Cimatti, Sergio Mover, Stefano Tonetta, Quantier-free encoding of invariants for Hybrid Systems, Formal Methods in System Design. This instance solves a BMC problem of depth 0 and uses the quantifier free encoding with equivalences and lemmas encoding. Contacts: Sergio Mover (mover@fbk.eu), Stefano Tonetta (tonettas@fbk.eu), Alessandro Cimatti (cimatti@fbk.eu).|)
(set-info :smt-lib-version 2.0)
(set-info :category "industrial")
(set-info :status unsat)
;; MathSAT API call trace
;; generated on Mon Mar 19 10:46:24 2012
(declare-fun b.counter.0__AT0 () Bool)
(declare-fun b.counter.1__AT0 () Bool)
(declare-fun b.counter.2__AT0 () Bool)
(declare-fun b.delta__AT0 () Real)
(declare-fun b.event_is_timed__AT0 () Bool)
(declare-fun b.EVENT.0__AT0 () Bool)
(declare-fun b.speed_loss__AT0 () Real)
(declare-fun b.counter.3__AT0 () Bool)
(declare-fun b.x__AT0 () Real)
(declare-fun b.speed_y__AT0 () Real)
(declare-fun b.speed_x__AT0 () Real)
(declare-fun b.EVENT.1__AT0 () Bool)
(declare-fun b.time__AT0 () Real)
(declare-fun b.y__AT0 () Real)
(assert (let ((.def_221 (* (- 49.0) b.delta__AT0)))
(let ((.def_222 (* 5.0 b.speed_y__AT0)))
(let ((.def_224 (+ .def_222 .def_221)))
(let ((.def_237 (<= 0.0 .def_224)))
(let ((.def_238 (not .def_237)))
(let ((.def_235 (<= 0.0 b.speed_y__AT0)))
(let ((.def_252 (or .def_235 .def_238)))
(let ((.def_227 (<= b.speed_y__AT0 0.0 )))
(let ((.def_228 (not .def_227)))
(let ((.def_225 (<= .def_224 0.0 )))
(let ((.def_251 (or .def_225 .def_228)))
(let ((.def_253 (and .def_251 .def_252)))
(let ((.def_96 (* b.y__AT0 b.speed_y__AT0)))
(let ((.def_140 (* 2.0 .def_96)))
(let ((.def_141 (+ b.speed_x__AT0 .def_140)))
(let ((.def_154 (<= .def_141 0.0 )))
(let ((.def_248 (and .def_154 .def_237)))
(let ((.def_142 (<= 0.0 .def_141)))
(let ((.def_247 (and .def_142 .def_225)))
(let ((.def_249 (or .def_247 .def_248)))
(let ((.def_83 (* (- (/ 49 10)) b.speed_y__AT0)))
(let ((.def_115 (* 3.0 .def_83)))
(let ((.def_175 (* 2.0 .def_115)))
(let ((.def_176 (* b.delta__AT0 .def_175)))
(let ((.def_178 (* (- 50.0) .def_176)))
(let ((.def_88 (* b.speed_y__AT0 b.speed_y__AT0)))
(let ((.def_180 (* (- 50.0) .def_88)))
(let ((.def_185 (+ .def_180 .def_178)))
(let ((.def_74 (* b.delta__AT0 b.delta__AT0)))
(let ((.def_174 (* (- 7203.0) .def_74)))
(let ((.def_186 (+ .def_174 .def_185)))
(let ((.def_183 (* 490.0 b.y__AT0)))
(let ((.def_187 (+ .def_183 .def_186)))
(let ((.def_206 (<= 0.0 .def_187)))
(let ((.def_207 (not .def_206)))
(let ((.def_192 (* (- 5.0) .def_88)))
(let ((.def_193 (* 49.0 b.y__AT0)))
(let ((.def_195 (+ .def_193 .def_192)))
(let ((.def_204 (<= 0.0 .def_195)))
(let ((.def_242 (or .def_204 .def_207)))
(let ((.def_196 (<= .def_195 0.0 )))
(let ((.def_197 (not .def_196)))
(let ((.def_188 (<= .def_187 0.0 )))
(let ((.def_241 (or .def_188 .def_197)))
(let ((.def_243 (and .def_241 .def_242)))
(let ((.def_236 (not .def_235)))
(let ((.def_239 (or .def_236 .def_238)))
(let ((.def_240 (not .def_239)))
(let ((.def_244 (or .def_240 .def_243)))
(let ((.def_189 (not .def_188)))
(let ((.def_232 (or .def_189 .def_196)))
(let ((.def_205 (not .def_204)))
(let ((.def_231 (or .def_205 .def_206)))
(let ((.def_233 (and .def_231 .def_232)))
(let ((.def_226 (not .def_225)))
(let ((.def_229 (or .def_226 .def_228)))
(let ((.def_230 (not .def_229)))
(let ((.def_234 (or .def_230 .def_233)))
(let ((.def_245 (and .def_234 .def_244)))
(let ((.def_217 (and .def_154 .def_206)))
(let ((.def_216 (and .def_142 .def_188)))
(let ((.def_218 (or .def_216 .def_217)))
(let ((.def_92 (* (- (/ 49 10)) b.y__AT0)))
(let ((.def_125 (* 2.0 .def_92)))
(let ((.def_126 (* b.delta__AT0 .def_125)))
(let ((.def_127 (* 50.0 .def_126)))
(let ((.def_120 (* 2.0 .def_88)))
(let ((.def_121 (* b.delta__AT0 .def_120)))
(let ((.def_123 (* 25.0 .def_121)))
(let ((.def_133 (+ .def_123 .def_127)))
(let ((.def_116 (* .def_74 .def_115)))
(let ((.def_118 (* 50.0 .def_116)))
(let ((.def_134 (+ .def_118 .def_133)))
(let ((.def_129 (* 50.0 .def_96)))
(let ((.def_135 (+ .def_129 .def_134)))
(let ((.def_75 (* b.delta__AT0 .def_74)))
(let ((.def_113 (* 2401.0 .def_75)))
(let ((.def_136 (+ .def_113 .def_135)))
(let ((.def_131 (* 25.0 b.speed_x__AT0)))
(let ((.def_137 (+ .def_131 .def_136)))
(let ((.def_156 (<= .def_137 0.0 )))
(let ((.def_157 (not .def_156)))
(let ((.def_211 (or .def_154 .def_157)))
(let ((.def_143 (not .def_142)))
(let ((.def_138 (<= 0.0 .def_137)))
(let ((.def_210 (or .def_138 .def_143)))
(let ((.def_212 (and .def_210 .def_211)))
(let ((.def_208 (or .def_205 .def_207)))
(let ((.def_209 (not .def_208)))
(let ((.def_213 (or .def_209 .def_212)))
(let ((.def_139 (not .def_138)))
(let ((.def_201 (or .def_139 .def_142)))
(let ((.def_155 (not .def_154)))
(let ((.def_200 (or .def_155 .def_156)))
(let ((.def_202 (and .def_200 .def_201)))
(let ((.def_198 (or .def_189 .def_197)))
(let ((.def_199 (not .def_198)))
(let ((.def_203 (or .def_199 .def_202)))
(let ((.def_214 (and .def_203 .def_213)))
(let ((.def_169 (and .def_154 .def_156)))
(let ((.def_168 (and .def_138 .def_142)))
(let ((.def_170 (or .def_168 .def_169)))
(let ((.def_97 (* b.delta__AT0 .def_96)))
(let ((.def_98 (* 200.0 .def_97)))
(let ((.def_93 (* .def_74 .def_92)))
(let ((.def_94 (* 200.0 .def_93)))
(let ((.def_104 (+ .def_94 .def_98)))
(let ((.def_89 (* .def_74 .def_88)))
(let ((.def_90 (* 100.0 .def_89)))
(let ((.def_105 (+ .def_90 .def_104)))
(let ((.def_84 (* .def_75 .def_83)))
(let ((.def_86 (* 200.0 .def_84)))
(let ((.def_106 (+ .def_86 .def_105)))
(let ((.def_76 (* b.delta__AT0 .def_75)))
(let ((.def_78 (* 2401.0 .def_76)))
(let ((.def_107 (+ .def_78 .def_106)))
(let ((.def_71 (* b.speed_x__AT0 b.delta__AT0)))
(let ((.def_73 (* 100.0 .def_71)))
(let ((.def_108 (+ .def_73 .def_107)))
(let ((.def_56 (* b.y__AT0 b.y__AT0)))
(let ((.def_100 (* 100.0 .def_56)))
(let ((.def_109 (+ .def_100 .def_108)))
(let ((.def_102 (* 100.0 b.x__AT0)))
(let ((.def_110 (+ .def_102 .def_109)))
(let ((.def_148 (<= .def_110 0.0 )))
(let ((.def_162 (not .def_148)))
(let ((.def_57 (+ b.x__AT0 .def_56)))
(let ((.def_146 (<= .def_57 0.0 )))
(let ((.def_163 (or .def_146 .def_162)))
(let ((.def_58 (<= 0.0 .def_57)))
(let ((.def_160 (not .def_58)))
(let ((.def_111 (<= 0.0 .def_110)))
(let ((.def_161 (or .def_111 .def_160)))
(let ((.def_164 (and .def_161 .def_163)))
(let ((.def_158 (or .def_155 .def_157)))
(let ((.def_159 (not .def_158)))
(let ((.def_165 (or .def_159 .def_164)))
(let ((.def_150 (not .def_111)))
(let ((.def_151 (or .def_58 .def_150)))
(let ((.def_147 (not .def_146)))
(let ((.def_149 (or .def_147 .def_148)))
(let ((.def_152 (and .def_149 .def_151)))
(let ((.def_144 (or .def_139 .def_143)))
(let ((.def_145 (not .def_144)))
(let ((.def_153 (or .def_145 .def_152)))
(let ((.def_166 (and .def_153 .def_165)))
(let ((.def_112 (and .def_58 .def_111)))
(let ((.def_167 (and .def_112 .def_166)))
(let ((.def_171 (and .def_167 .def_170)))
(let ((.def_215 (and .def_171 .def_214)))
(let ((.def_219 (and .def_215 .def_218)))
(let ((.def_246 (and .def_219 .def_245)))
(let ((.def_250 (and .def_246 .def_249)))
(let ((.def_254 (and .def_250 .def_253)))
(let ((.def_64 (<= b.speed_loss__AT0 (/ 1 2))))
(let ((.def_61 (<= (/ 1 10) b.speed_loss__AT0)))
(let ((.def_65 (and .def_61 .def_64)))
(let ((.def_255 (and .def_65 .def_254)))
(let ((.def_66 (and .def_58 .def_65)))
(let ((.def_53 (not b.EVENT.0__AT0)))
(let ((.def_51 (not b.EVENT.1__AT0)))
(let ((.def_54 (or .def_51 .def_53)))
(let ((.def_9 (not b.counter.0__AT0)))
(let ((.def_6 (not b.counter.1__AT0)))
(let ((.def_44 (or .def_6 .def_9)))
(let ((.def_48 (or b.counter.3__AT0 .def_44)))
(let ((.def_45 (or b.counter.2__AT0 .def_44)))
(let ((.def_4 (not b.counter.2__AT0)))
(let ((.def_43 (or .def_4 .def_9)))
(let ((.def_46 (and .def_43 .def_45)))
(let ((.def_14 (not b.counter.3__AT0)))
(let ((.def_47 (or .def_14 .def_46)))
(let ((.def_49 (and .def_47 .def_48)))
(let ((.def_55 (and .def_49 .def_54)))
(let ((.def_67 (and .def_55 .def_66)))
(let ((.def_10 (and .def_6 .def_9)))
(let ((.def_40 (and .def_4 .def_10)))
(let ((.def_41 (and .def_14 .def_40)))
(let ((.def_38 (= b.speed_y__AT0 1.0 )))
(let ((.def_35 (= b.speed_x__AT0 1.0 )))
(let ((.def_31 (= b.y__AT0 10.0 )))
(let ((.def_27 (= b.x__AT0 (- 9.0) )))
(let ((.def_21 (= b.time__AT0 0.0 )))
(let ((.def_23 (and .def_21 b.event_is_timed__AT0)))
(let ((.def_28 (and .def_23 .def_27)))
(let ((.def_32 (and .def_28 .def_31)))
(let ((.def_36 (and .def_32 .def_35)))
(let ((.def_39 (and .def_36 .def_38)))
(let ((.def_42 (and .def_39 .def_41)))
(let ((.def_68 (and .def_42 .def_67)))
(let ((.def_16 (or .def_10 b.counter.3__AT0)))
(let ((.def_11 (or b.counter.2__AT0 .def_10)))
(let ((.def_7 (or .def_4 .def_6)))
(let ((.def_12 (and .def_7 .def_11)))
(let ((.def_15 (or .def_12 .def_14)))
(let ((.def_17 (and .def_15 .def_16)))
(let ((.def_18 (not .def_17)))
(let ((.def_69 (and .def_18 .def_68)))
(let ((.def_256 (and .def_69 .def_255)))
.def_256))))))))))))))))))))))))))))))))))))))))))))))))))))))))))))))))))))))))))))))))))))))))))))))))))))))))))))))))))))))))))))))))))))))))))))))))))))))))))))))))))))))))))))))))))))))))))))))))))))))))
(check-sat)
(exit)
